p edge 2026 1961
e 1 2
e 1 3
e 1 4
e 1 5
e 1 6
e 1 7
e 1 8
e 1 9
e 1 10
e 1 11
e 1 12
e 1 13
e 1 14
e 1 15
e 1 16
e 1 17
e 1 18
e 1 19
e 1 20
e 1 21
e 1 22
e 1 23
e 1 24
e 1 25
e 1 26
e 1 27
e 1 28
e 1 29
e 1 30
e 1 31
e 1 32
e 1 33
e 1 34
e 35 36
e 35 37
e 35 38
e 35 39
e 35 40
e 35 41
e 35 42
e 35 43
e 35 44
e 35 45
e 35 46
e 35 47
e 35 48
e 35 49
e 35 50
e 35 51
e 35 52
e 35 53
e 54 55
e 54 56
e 54 57
e 54 58
e 54 59
e 54 60
e 54 61
e 54 62
e 54 63
e 54 64
e 54 65
e 54 66
e 54 67
e 68 69
e 68 70
e 68 71
e 68 72
e 68 73
e 68 74
e 68 75
e 68 76
e 68 77
e 68 78
e 68 79
e 68 80
e 68 81
e 68 82
e 68 83
e 68 84
e 68 85
e 68 86
e 68 87
e 68 88
e 68 89
e 68 90
e 68 91
e 68 92
e 68 93
e 68 94
e 68 95
e 68 96
e 68 97
e 68 98
e 99 100
e 99 101
e 99 102
e 99 103
e 99 104
e 99 105
e 99 106
e 99 107
e 99 108
e 99 109
e 99 110
e 99 111
e 99 112
e 99 113
e 99 114
e 99 115
e 99 116
e 99 117
e 99 118
e 99 119
e 99 120
e 99 121
e 99 122
e 99 123
e 99 124
e 99 125
e 99 126
e 99 127
e 99 128
e 99 129
e 99 130
e 99 131
e 99 132
e 99 133
e 99 134
e 99 135
e 99 136
e 137 138
e 137 139
e 137 140
e 137 141
e 137 142
e 137 143
e 137 144
e 137 145
e 137 146
e 137 147
e 137 148
e 137 149
e 137 150
e 137 151
e 137 152
e 137 153
e 137 154
e 137 155
e 137 156
e 137 157
e 137 158
e 137 159
e 137 160
e 137 161
e 137 162
e 137 163
e 137 164
e 137 165
e 137 166
e 137 167
e 137 168
e 137 169
e 137 170
e 137 171
e 137 172
e 137 173
e 137 174
e 137 175
e 176 177
e 176 178
e 176 179
e 176 180
e 176 181
e 176 182
e 176 183
e 176 184
e 176 185
e 176 186
e 176 187
e 176 188
e 176 189
e 176 190
e 176 191
e 176 192
e 176 193
e 176 194
e 176 195
e 176 196
e 176 197
e 176 198
e 176 199
e 176 200
e 176 201
e 176 202
e 176 203
e 176 204
e 176 205
e 176 206
e 176 207
e 176 208
e 176 209
e 176 210
e 176 211
e 176 212
e 176 213
e 176 214
e 176 215
e 176 216
e 176 217
e 176 218
e 219 220
e 219 221
e 219 222
e 219 223
e 219 224
e 219 225
e 219 226
e 219 227
e 219 228
e 219 229
e 219 230
e 219 231
e 219 232
e 219 233
e 219 234
e 219 235
e 219 236
e 219 237
e 219 238
e 219 239
e 219 240
e 219 241
e 219 242
e 219 243
e 219 244
e 219 245
e 219 246
e 219 247
e 219 248
e 219 249
e 250 251
e 250 252
e 250 253
e 250 254
e 250 255
e 250 256
e 250 257
e 250 258
e 250 259
e 250 260
e 250 261
e 250 262
e 250 263
e 250 264
e 250 265
e 250 266
e 250 267
e 250 268
e 250 269
e 250 270
e 250 271
e 250 272
e 250 273
e 250 274
e 250 275
e 250 276
e 250 277
e 250 278
e 250 279
e 250 280
e 250 281
e 250 282
e 250 283
e 250 284
e 250 285
e 250 286
e 250 287
e 250 288
e 250 289
e 250 290
e 250 291
e 250 292
e 250 293
e 250 294
e 295 296
e 295 297
e 295 298
e 295 299
e 295 300
e 295 301
e 295 302
e 295 303
e 295 304
e 295 305
e 295 306
e 295 307
e 295 308
e 295 309
e 295 310
e 295 311
e 295 312
e 295 313
e 295 314
e 295 315
e 295 316
e 295 317
e 295 318
e 295 319
e 295 320
e 295 321
e 295 322
e 295 323
e 295 324
e 295 325
e 295 326
e 295 327
e 295 328
e 295 329
e 330 331
e 330 332
e 330 333
e 330 334
e 330 335
e 330 336
e 330 337
e 330 338
e 330 339
e 330 340
e 330 341
e 330 342
e 330 343
e 330 344
e 330 345
e 330 346
e 330 347
e 330 348
e 330 349
e 330 350
e 330 351
e 330 352
e 330 353
e 330 354
e 330 355
e 330 356
e 330 357
e 330 358
e 330 359
e 330 360
e 330 361
e 362 363
e 362 364
e 362 365
e 362 366
e 362 367
e 362 368
e 362 369
e 362 370
e 362 371
e 362 372
e 362 373
e 362 374
e 362 375
e 362 376
e 362 377
e 362 378
e 362 379
e 362 380
e 362 381
e 362 382
e 362 383
e 384 385
e 384 386
e 384 387
e 384 388
e 384 389
e 384 390
e 384 391
e 384 392
e 384 393
e 384 394
e 384 395
e 384 396
e 384 397
e 398 399
e 398 400
e 398 401
e 398 402
e 398 403
e 398 404
e 398 405
e 398 406
e 398 407
e 398 408
e 398 409
e 398 410
e 398 411
e 398 412
e 398 413
e 398 414
e 415 416
e 415 417
e 415 418
e 415 419
e 415 420
e 415 421
e 415 422
e 415 423
e 415 424
e 415 425
e 415 426
e 415 427
e 415 428
e 415 429
e 415 430
e 415 431
e 415 432
e 415 433
e 415 434
e 415 435
e 415 436
e 415 437
e 415 438
e 415 439
e 415 440
e 415 441
e 415 442
e 415 443
e 415 444
e 415 445
e 415 446
e 415 447
e 415 448
e 415 449
e 415 450
e 415 451
e 415 452
e 415 453
e 454 455
e 454 456
e 454 457
e 454 458
e 454 459
e 454 460
e 454 461
e 454 462
e 454 463
e 454 464
e 454 465
e 454 466
e 454 467
e 454 468
e 454 469
e 454 470
e 454 471
e 454 472
e 454 473
e 454 474
e 454 475
e 454 476
e 454 477
e 454 478
e 454 479
e 454 480
e 454 481
e 454 482
e 454 483
e 454 484
e 454 485
e 454 486
e 454 487
e 454 488
e 454 489
e 490 491
e 490 492
e 490 493
e 490 494
e 490 495
e 490 496
e 490 497
e 490 498
e 490 499
e 490 500
e 490 501
e 490 502
e 490 503
e 490 504
e 490 505
e 490 506
e 490 507
e 508 509
e 508 510
e 508 511
e 508 512
e 508 513
e 508 514
e 508 515
e 508 516
e 508 517
e 508 518
e 508 519
e 508 520
e 508 521
e 508 522
e 508 523
e 508 524
e 508 525
e 508 526
e 508 527
e 508 528
e 508 529
e 508 530
e 508 531
e 532 533
e 532 534
e 532 535
e 532 536
e 532 537
e 532 538
e 532 539
e 532 540
e 532 541
e 532 542
e 532 543
e 532 544
e 532 545
e 532 546
e 532 547
e 532 548
e 532 549
e 532 550
e 532 551
e 532 552
e 532 553
e 532 554
e 532 555
e 532 556
e 532 557
e 532 558
e 532 559
e 532 560
e 532 561
e 532 562
e 532 563
e 532 564
e 532 565
e 532 566
e 532 567
e 532 568
e 532 569
e 570 571
e 570 572
e 570 573
e 570 574
e 570 575
e 570 576
e 570 577
e 570 578
e 570 579
e 570 580
e 570 581
e 570 582
e 570 583
e 570 584
e 570 585
e 570 586
e 570 587
e 570 588
e 570 589
e 570 590
e 570 591
e 570 592
e 570 593
e 570 594
e 570 595
e 570 596
e 570 597
e 570 598
e 570 599
e 570 600
e 570 601
e 570 602
e 570 603
e 570 604
e 570 605
e 570 606
e 570 607
e 570 608
e 570 609
e 570 610
e 570 611
e 570 612
e 570 613
e 570 614
e 570 615
e 616 617
e 616 618
e 616 619
e 616 620
e 616 621
e 616 622
e 616 623
e 616 624
e 616 625
e 616 626
e 616 627
e 616 628
e 616 629
e 616 630
e 616 631
e 616 632
e 616 633
e 616 634
e 616 635
e 616 636
e 616 637
e 638 639
e 638 640
e 638 641
e 638 642
e 638 643
e 638 644
e 638 645
e 638 646
e 638 647
e 638 648
e 638 649
e 638 650
e 638 651
e 638 652
e 638 653
e 638 654
e 638 655
e 638 656
e 638 657
e 638 658
e 638 659
e 638 660
e 638 661
e 638 662
e 638 663
e 664 665
e 664 666
e 664 667
e 664 668
e 664 669
e 664 670
e 664 671
e 664 672
e 664 673
e 664 674
e 664 675
e 664 676
e 664 677
e 664 678
e 664 679
e 664 680
e 664 681
e 664 682
e 664 683
e 664 684
e 664 685
e 664 686
e 664 687
e 688 689
e 688 690
e 688 691
e 688 692
e 688 693
e 688 694
e 688 695
e 688 696
e 688 697
e 688 698
e 688 699
e 688 700
e 688 701
e 688 702
e 688 703
e 688 704
e 688 705
e 688 706
e 688 707
e 688 708
e 688 709
e 688 710
e 688 711
e 688 712
e 688 713
e 688 714
e 688 715
e 688 716
e 688 717
e 688 718
e 688 719
e 688 720
e 688 721
e 688 722
e 688 723
e 688 724
e 688 725
e 688 726
e 688 727
e 688 728
e 688 729
e 688 730
e 688 731
e 688 732
e 688 733
e 688 734
e 688 735
e 688 736
e 688 737
e 688 738
e 739 740
e 739 741
e 739 742
e 739 743
e 739 744
e 739 745
e 739 746
e 739 747
e 739 748
e 739 749
e 739 750
e 739 751
e 739 752
e 739 753
e 739 754
e 739 755
e 739 756
e 739 757
e 739 758
e 739 759
e 739 760
e 739 761
e 739 762
e 739 763
e 739 764
e 739 765
e 739 766
e 739 767
e 739 768
e 739 769
e 739 770
e 739 771
e 739 772
e 739 773
e 739 774
e 739 775
e 739 776
e 739 777
e 739 778
e 739 779
e 739 780
e 739 781
e 739 782
e 739 783
e 739 784
e 785 786
e 785 787
e 785 788
e 785 789
e 785 790
e 785 791
e 785 792
e 785 793
e 785 794
e 785 795
e 785 796
e 785 797
e 785 798
e 785 799
e 785 800
e 785 801
e 785 802
e 785 803
e 785 804
e 785 805
e 785 806
e 785 807
e 785 808
e 785 809
e 785 810
e 785 811
e 785 812
e 785 813
e 785 814
e 785 815
e 785 816
e 785 817
e 785 818
e 785 819
e 785 820
e 785 821
e 785 822
e 785 823
e 785 824
e 785 825
e 785 826
e 785 827
e 785 828
e 785 829
e 785 830
e 785 831
e 785 832
e 785 833
e 785 834
e 785 835
e 836 837
e 836 838
e 836 839
e 836 840
e 836 841
e 836 842
e 836 843
e 836 844
e 836 845
e 836 846
e 836 847
e 836 848
e 836 849
e 836 850
e 836 851
e 836 852
e 836 853
e 836 854
e 836 855
e 856 857
e 856 858
e 856 859
e 856 860
e 856 861
e 856 862
e 856 863
e 856 864
e 856 865
e 856 866
e 856 867
e 856 868
e 856 869
e 856 870
e 856 871
e 856 872
e 856 873
e 856 874
e 856 875
e 856 876
e 856 877
e 856 878
e 856 879
e 856 880
e 856 881
e 856 882
e 856 883
e 856 884
e 856 885
e 856 886
e 856 887
e 856 888
e 856 889
e 856 890
e 856 891
e 856 892
e 856 893
e 856 894
e 856 895
e 856 896
e 897 898
e 897 899
e 897 900
e 897 901
e 897 902
e 897 903
e 897 904
e 897 905
e 897 906
e 897 907
e 897 908
e 897 909
e 897 910
e 897 911
e 897 912
e 897 913
e 897 914
e 897 915
e 897 916
e 897 917
e 897 918
e 897 919
e 897 920
e 897 921
e 897 922
e 897 923
e 897 924
e 897 925
e 897 926
e 897 927
e 897 928
e 929 930
e 929 931
e 929 932
e 929 933
e 929 934
e 929 935
e 929 936
e 929 937
e 929 938
e 929 939
e 929 940
e 929 941
e 929 942
e 929 943
e 929 944
e 929 945
e 929 946
e 929 947
e 929 948
e 929 949
e 929 950
e 929 951
e 929 952
e 929 953
e 929 954
e 929 955
e 956 957
e 956 958
e 956 959
e 956 960
e 956 961
e 956 962
e 956 963
e 956 964
e 956 965
e 956 966
e 956 967
e 956 968
e 956 969
e 956 970
e 956 971
e 956 972
e 956 973
e 956 974
e 956 975
e 956 976
e 956 977
e 956 978
e 956 979
e 956 980
e 956 981
e 956 982
e 956 983
e 956 984
e 956 985
e 956 986
e 956 987
e 956 988
e 956 989
e 956 990
e 956 991
e 956 992
e 956 993
e 956 994
e 956 995
e 956 996
e 956 997
e 956 998
e 956 999
e 956 1000
e 956 1001
e 956 1002
e 1003 1004
e 1003 1005
e 1003 1006
e 1003 1007
e 1003 1008
e 1003 1009
e 1003 1010
e 1003 1011
e 1003 1012
e 1003 1013
e 1003 1014
e 1015 1016
e 1015 1017
e 1015 1018
e 1015 1019
e 1015 1020
e 1015 1021
e 1015 1022
e 1015 1023
e 1015 1024
e 1015 1025
e 1015 1026
e 1015 1027
e 1015 1028
e 1015 1029
e 1015 1030
e 1015 1031
e 1015 1032
e 1015 1033
e 1015 1034
e 1035 1036
e 1035 1037
e 1035 1038
e 1035 1039
e 1035 1040
e 1035 1041
e 1035 1042
e 1035 1043
e 1035 1044
e 1035 1045
e 1035 1046
e 1035 1047
e 1035 1048
e 1035 1049
e 1035 1050
e 1035 1051
e 1035 1052
e 1035 1053
e 1035 1054
e 1035 1055
e 1035 1056
e 1035 1057
e 1035 1058
e 1035 1059
e 1035 1060
e 1035 1061
e 1035 1062
e 1035 1063
e 1035 1064
e 1035 1065
e 1035 1066
e 1035 1067
e 1035 1068
e 1035 1069
e 1035 1070
e 1035 1071
e 1035 1072
e 1035 1073
e 1035 1074
e 1035 1075
e 1035 1076
e 1035 1077
e 1035 1078
e 1035 1079
e 1035 1080
e 1035 1081
e 1035 1082
e 1035 1083
e 1035 1084
e 1035 1085
e 1086 1087
e 1086 1088
e 1086 1089
e 1086 1090
e 1086 1091
e 1086 1092
e 1086 1093
e 1086 1094
e 1086 1095
e 1086 1096
e 1086 1097
e 1086 1098
e 1086 1099
e 1086 1100
e 1086 1101
e 1086 1102
e 1086 1103
e 1086 1104
e 1086 1105
e 1086 1106
e 1086 1107
e 1086 1108
e 1086 1109
e 1086 1110
e 1086 1111
e 1086 1112
e 1086 1113
e 1086 1114
e 1086 1115
e 1086 1116
e 1086 1117
e 1086 1118
e 1086 1119
e 1086 1120
e 1086 1121
e 1086 1122
e 1123 1124
e 1123 1125
e 1123 1126
e 1123 1127
e 1123 1128
e 1123 1129
e 1123 1130
e 1123 1131
e 1123 1132
e 1123 1133
e 1123 1134
e 1123 1135
e 1123 1136
e 1123 1137
e 1123 1138
e 1123 1139
e 1123 1140
e 1123 1141
e 1123 1142
e 1123 1143
e 1123 1144
e 1123 1145
e 1123 1146
e 1123 1147
e 1123 1148
e 1123 1149
e 1123 1150
e 1123 1151
e 1123 1152
e 1123 1153
e 1123 1154
e 1123 1155
e 1123 1156
e 1123 1157
e 1123 1158
e 1123 1159
e 1123 1160
e 1123 1161
e 1123 1162
e 1123 1163
e 1123 1164
e 1123 1165
e 1123 1166
e 1123 1167
e 1123 1168
e 1123 1169
e 1123 1170
e 1123 1171
e 1123 1172
e 1123 1173
e 1174 1175
e 1174 1176
e 1174 1177
e 1174 1178
e 1174 1179
e 1174 1180
e 1174 1181
e 1174 1182
e 1174 1183
e 1174 1184
e 1174 1185
e 1174 1186
e 1174 1187
e 1174 1188
e 1174 1189
e 1174 1190
e 1174 1191
e 1174 1192
e 1174 1193
e 1174 1194
e 1174 1195
e 1174 1196
e 1174 1197
e 1174 1198
e 1174 1199
e 1200 1201
e 1200 1202
e 1200 1203
e 1200 1204
e 1200 1205
e 1200 1206
e 1200 1207
e 1200 1208
e 1200 1209
e 1200 1210
e 1200 1211
e 1200 1212
e 1200 1213
e 1200 1214
e 1200 1215
e 1200 1216
e 1200 1217
e 1200 1218
e 1200 1219
e 1200 1220
e 1200 1221
e 1222 1223
e 1222 1224
e 1222 1225
e 1222 1226
e 1222 1227
e 1222 1228
e 1222 1229
e 1222 1230
e 1222 1231
e 1222 1232
e 1222 1233
e 1234 1235
e 1234 1236
e 1234 1237
e 1234 1238
e 1234 1239
e 1234 1240
e 1234 1241
e 1234 1242
e 1234 1243
e 1234 1244
e 1234 1245
e 1234 1246
e 1234 1247
e 1234 1248
e 1234 1249
e 1234 1250
e 1234 1251
e 1234 1252
e 1234 1253
e 1234 1254
e 1234 1255
e 1234 1256
e 1234 1257
e 1234 1258
e 1234 1259
e 1234 1260
e 1234 1261
e 1234 1262
e 1234 1263
e 1234 1264
e 1234 1265
e 1234 1266
e 1234 1267
e 1234 1268
e 1234 1269
e 1234 1270
e 1234 1271
e 1234 1272
e 1234 1273
e 1234 1274
e 1234 1275
e 1234 1276
e 1234 1277
e 1234 1278
e 1279 1280
e 1279 1281
e 1279 1282
e 1279 1283
e 1279 1284
e 1279 1285
e 1279 1286
e 1279 1287
e 1279 1288
e 1279 1289
e 1279 1290
e 1279 1291
e 1279 1292
e 1279 1293
e 1279 1294
e 1279 1295
e 1279 1296
e 1279 1297
e 1279 1298
e 1279 1299
e 1279 1300
e 1279 1301
e 1279 1302
e 1279 1303
e 1279 1304
e 1279 1305
e 1279 1306
e 1279 1307
e 1279 1308
e 1279 1309
e 1279 1310
e 1279 1311
e 1279 1312
e 1279 1313
e 1279 1314
e 1279 1315
e 1279 1316
e 1279 1317
e 1279 1318
e 1279 1319
e 1279 1320
e 1279 1321
e 1322 1323
e 1322 1324
e 1322 1325
e 1322 1326
e 1322 1327
e 1322 1328
e 1322 1329
e 1322 1330
e 1322 1331
e 1322 1332
e 1322 1333
e 1322 1334
e 1322 1335
e 1322 1336
e 1322 1337
e 1338 1339
e 1338 1340
e 1338 1341
e 1338 1342
e 1338 1343
e 1338 1344
e 1338 1345
e 1338 1346
e 1338 1347
e 1338 1348
e 1338 1349
e 1338 1350
e 1338 1351
e 1338 1352
e 1338 1353
e 1354 1355
e 1354 1356
e 1354 1357
e 1354 1358
e 1354 1359
e 1354 1360
e 1354 1361
e 1354 1362
e 1354 1363
e 1354 1364
e 1365 1366
e 1365 1367
e 1365 1368
e 1365 1369
e 1365 1370
e 1365 1371
e 1365 1372
e 1365 1373
e 1365 1374
e 1365 1375
e 1365 1376
e 1365 1377
e 1365 1378
e 1379 1380
e 1379 1381
e 1379 1382
e 1379 1383
e 1379 1384
e 1379 1385
e 1379 1386
e 1379 1387
e 1379 1388
e 1379 1389
e 1379 1390
e 1379 1391
e 1379 1392
e 1379 1393
e 1379 1394
e 1395 1396
e 1395 1397
e 1395 1398
e 1395 1399
e 1395 1400
e 1395 1401
e 1395 1402
e 1395 1403
e 1395 1404
e 1395 1405
e 1395 1406
e 1395 1407
e 1395 1408
e 1395 1409
e 1395 1410
e 1395 1411
e 1395 1412
e 1395 1413
e 1395 1414
e 1395 1415
e 1395 1416
e 1395 1417
e 1395 1418
e 1395 1419
e 1395 1420
e 1395 1421
e 1395 1422
e 1395 1423
e 1395 1424
e 1395 1425
e 1395 1426
e 1395 1427
e 1395 1428
e 1395 1429
e 1395 1430
e 1395 1431
e 1395 1432
e 1395 1433
e 1395 1434
e 1395 1435
e 1395 1436
e 1395 1437
e 1395 1438
e 1395 1439
e 1395 1440
e 1441 1442
e 1441 1443
e 1441 1444
e 1441 1445
e 1441 1446
e 1441 1447
e 1441 1448
e 1441 1449
e 1441 1450
e 1441 1451
e 1441 1452
e 1441 1453
e 1441 1454
e 1441 1455
e 1441 1456
e 1441 1457
e 1441 1458
e 1441 1459
e 1441 1460
e 1461 1462
e 1461 1463
e 1461 1464
e 1461 1465
e 1461 1466
e 1461 1467
e 1461 1468
e 1461 1469
e 1461 1470
e 1461 1471
e 1461 1472
e 1461 1473
e 1461 1474
e 1461 1475
e 1461 1476
e 1461 1477
e 1461 1478
e 1461 1479
e 1461 1480
e 1461 1481
e 1461 1482
e 1461 1483
e 1461 1484
e 1485 1486
e 1485 1487
e 1485 1488
e 1485 1489
e 1485 1490
e 1485 1491
e 1485 1492
e 1485 1493
e 1485 1494
e 1485 1495
e 1485 1496
e 1485 1497
e 1485 1498
e 1485 1499
e 1485 1500
e 1485 1501
e 1485 1502
e 1485 1503
e 1485 1504
e 1485 1505
e 1485 1506
e 1485 1507
e 1485 1508
e 1485 1509
e 1485 1510
e 1485 1511
e 1485 1512
e 1485 1513
e 1485 1514
e 1485 1515
e 1485 1516
e 1485 1517
e 1485 1518
e 1485 1519
e 1485 1520
e 1485 1521
e 1485 1522
e 1485 1523
e 1485 1524
e 1485 1525
e 1485 1526
e 1485 1527
e 1485 1528
e 1485 1529
e 1485 1530
e 1485 1531
e 1485 1532
e 1485 1533
e 1534 1535
e 1534 1536
e 1534 1537
e 1534 1538
e 1534 1539
e 1534 1540
e 1534 1541
e 1534 1542
e 1534 1543
e 1534 1544
e 1534 1545
e 1534 1546
e 1534 1547
e 1534 1548
e 1534 1549
e 1534 1550
e 1534 1551
e 1534 1552
e 1534 1553
e 1534 1554
e 1534 1555
e 1534 1556
e 1534 1557
e 1534 1558
e 1534 1559
e 1534 1560
e 1534 1561
e 1534 1562
e 1534 1563
e 1534 1564
e 1534 1565
e 1534 1566
e 1534 1567
e 1534 1568
e 1534 1569
e 1534 1570
e 1534 1571
e 1534 1572
e 1534 1573
e 1534 1574
e 1575 1576
e 1575 1577
e 1575 1578
e 1575 1579
e 1575 1580
e 1575 1581
e 1575 1582
e 1575 1583
e 1575 1584
e 1575 1585
e 1575 1586
e 1575 1587
e 1575 1588
e 1575 1589
e 1575 1590
e 1575 1591
e 1575 1592
e 1593 1594
e 1593 1595
e 1593 1596
e 1593 1597
e 1593 1598
e 1593 1599
e 1593 1600
e 1593 1601
e 1593 1602
e 1593 1603
e 1593 1604
e 1593 1605
e 1593 1606
e 1593 1607
e 1593 1608
e 1593 1609
e 1593 1610
e 1593 1611
e 1593 1612
e 1593 1613
e 1593 1614
e 1593 1615
e 1593 1616
e 1593 1617
e 1593 1618
e 1593 1619
e 1593 1620
e 1593 1621
e 1593 1622
e 1593 1623
e 1593 1624
e 1593 1625
e 1593 1626
e 1593 1627
e 1593 1628
e 1593 1629
e 1593 1630
e 1593 1631
e 1593 1632
e 1593 1633
e 1593 1634
e 1593 1635
e 1593 1636
e 1593 1637
e 1638 1639
e 1638 1640
e 1638 1641
e 1638 1642
e 1638 1643
e 1638 1644
e 1638 1645
e 1638 1646
e 1638 1647
e 1638 1648
e 1638 1649
e 1638 1650
e 1638 1651
e 1638 1652
e 1638 1653
e 1638 1654
e 1638 1655
e 1638 1656
e 1638 1657
e 1638 1658
e 1638 1659
e 1638 1660
e 1638 1661
e 1638 1662
e 1638 1663
e 1638 1664
e 1638 1665
e 1638 1666
e 1638 1667
e 1638 1668
e 1669 1670
e 1669 1671
e 1669 1672
e 1669 1673
e 1669 1674
e 1669 1675
e 1669 1676
e 1669 1677
e 1669 1678
e 1669 1679
e 1669 1680
e 1669 1681
e 1669 1682
e 1669 1683
e 1669 1684
e 1669 1685
e 1669 1686
e 1669 1687
e 1669 1688
e 1669 1689
e 1669 1690
e 1669 1691
e 1669 1692
e 1669 1693
e 1669 1694
e 1669 1695
e 1669 1696
e 1669 1697
e 1669 1698
e 1669 1699
e 1669 1700
e 1669 1701
e 1669 1702
e 1669 1703
e 1669 1704
e 1669 1705
e 1669 1706
e 1669 1707
e 1669 1708
e 1669 1709
e 1669 1710
e 1711 1712
e 1711 1713
e 1711 1714
e 1711 1715
e 1711 1716
e 1711 1717
e 1711 1718
e 1711 1719
e 1711 1720
e 1711 1721
e 1711 1722
e 1711 1723
e 1711 1724
e 1711 1725
e 1711 1726
e 1727 1728
e 1727 1729
e 1727 1730
e 1727 1731
e 1727 1732
e 1727 1733
e 1727 1734
e 1727 1735
e 1727 1736
e 1727 1737
e 1727 1738
e 1727 1739
e 1727 1740
e 1727 1741
e 1727 1742
e 1727 1743
e 1727 1744
e 1727 1745
e 1727 1746
e 1727 1747
e 1727 1748
e 1727 1749
e 1727 1750
e 1727 1751
e 1727 1752
e 1727 1753
e 1727 1754
e 1727 1755
e 1727 1756
e 1727 1757
e 1727 1758
e 1727 1759
e 1727 1760
e 1727 1761
e 1727 1762
e 1727 1763
e 1727 1764
e 1727 1765
e 1727 1766
e 1727 1767
e 1727 1768
e 1727 1769
e 1727 1770
e 1727 1771
e 1727 1772
e 1727 1773
e 1727 1774
e 1727 1775
e 1776 1777
e 1776 1778
e 1776 1779
e 1776 1780
e 1776 1781
e 1776 1782
e 1776 1783
e 1776 1784
e 1776 1785
e 1776 1786
e 1776 1787
e 1776 1788
e 1776 1789
e 1776 1790
e 1776 1791
e 1776 1792
e 1776 1793
e 1776 1794
e 1776 1795
e 1776 1796
e 1776 1797
e 1776 1798
e 1776 1799
e 1776 1800
e 1776 1801
e 1776 1802
e 1803 1804
e 1803 1805
e 1803 1806
e 1803 1807
e 1803 1808
e 1803 1809
e 1803 1810
e 1803 1811
e 1803 1812
e 1803 1813
e 1803 1814
e 1803 1815
e 1803 1816
e 1803 1817
e 1803 1818
e 1803 1819
e 1803 1820
e 1803 1821
e 1803 1822
e 1803 1823
e 1803 1824
e 1803 1825
e 1803 1826
e 1803 1827
e 1828 1829
e 1828 1830
e 1828 1831
e 1828 1832
e 1828 1833
e 1828 1834
e 1828 1835
e 1828 1836
e 1828 1837
e 1828 1838
e 1828 1839
e 1828 1840
e 1828 1841
e 1828 1842
e 1828 1843
e 1828 1844
e 1828 1845
e 1828 1846
e 1828 1847
e 1828 1848
e 1828 1849
e 1828 1850
e 1828 1851
e 1828 1852
e 1828 1853
e 1828 1854
e 1828 1855
e 1828 1856
e 1828 1857
e 1828 1858
e 1828 1859
e 1828 1860
e 1828 1861
e 1828 1862
e 1828 1863
e 1828 1864
e 1828 1865
e 1828 1866
e 1828 1867
e 1828 1868
e 1828 1869
e 1828 1870
e 1828 1871
e 1828 1872
e 1828 1873
e 1874 1875
e 1874 1876
e 1874 1877
e 1874 1878
e 1874 1879
e 1874 1880
e 1874 1881
e 1874 1882
e 1874 1883
e 1874 1884
e 1874 1885
e 1874 1886
e 1874 1887
e 1888 1889
e 1888 1890
e 1888 1891
e 1888 1892
e 1888 1893
e 1888 1894
e 1888 1895
e 1888 1896
e 1888 1897
e 1888 1898
e 1888 1899
e 1888 1900
e 1888 1901
e 1888 1902
e 1888 1903
e 1888 1904
e 1888 1905
e 1888 1906
e 1888 1907
e 1908 1909
e 1908 1910
e 1908 1911
e 1908 1912
e 1908 1913
e 1908 1914
e 1908 1915
e 1908 1916
e 1908 1917
e 1908 1918
e 1908 1919
e 1908 1920
e 1908 1921
e 1908 1922
e 1908 1923
e 1908 1924
e 1908 1925
e 1908 1926
e 1908 1927
e 1908 1928
e 1908 1929
e 1908 1930
e 1908 1931
e 1908 1932
e 1908 1933
e 1908 1934
e 1908 1935
e 1908 1936
e 1908 1937
e 1908 1938
e 1908 1939
e 1940 1941
e 1940 1942
e 1940 1943
e 1940 1944
e 1940 1945
e 1940 1946
e 1940 1947
e 1940 1948
e 1940 1949
e 1940 1950
e 1940 1951
e 1940 1952
e 1940 1953
e 1940 1954
e 1940 1955
e 1940 1956
e 1940 1957
e 1940 1958
e 1940 1959
e 1940 1960
e 1940 1961
e 1940 1962
e 1940 1963
e 1940 1964
e 1940 1965
e 1940 1966
e 1940 1967
e 1940 1968
e 1940 1969
e 1940 1970
e 1940 1971
e 1940 1972
e 1940 1973
e 1940 1974
e 1940 1975
e 1940 1976
e 1940 1977
e 1940 1978
e 1940 1979
e 1940 1980
e 1981 1982
e 1981 1983
e 1981 1984
e 1981 1985
e 1981 1986
e 1981 1987
e 1981 1988
e 1981 1989
e 1981 1990
e 1981 1991
e 1981 1992
e 1981 1993
e 1981 1994
e 1981 1995
e 1981 1996
e 1981 1997
e 1981 1998
e 1981 1999
e 1981 2000
e 1981 2001
e 1981 2002
e 1981 2003
e 1981 2004
e 1981 2005
e 1981 2006
e 1981 2007
e 1981 2008
e 1981 2009
e 1981 2010
e 1981 2011
e 1981 2012
e 1981 2013
e 1981 2014
e 1981 2015
e 1981 2016
e 1981 2017
e 1981 2018
e 1981 2019
e 1981 2020
e 1981 2021
e 1981 2022
e 1981 2023
e 1981 2024
e 1981 2025
e 1981 2026
